(declare-const X String)
; Toolbarverpop\x2Epopuptoast\x2Ecomtvshowticketscount\x2Eyok\x2Ecom
(assert (not (str.in_re X (str.to_re "Toolbarverpop.popuptoast.comtvshowticketscount.yok.com\u{a}"))))
(check-sat)
